Fe41 He1                                
   1.0000000000000000     
     4.0048389999999996    0.0000000000000000    0.0000000000000000
     0.0000000000000000    4.6960899999999999    0.0000000000000000
     0.0000000000000000    0.0000000000000000   50.9732800000000026
   Fe   He   Fe
    19     1    22
Direct
  0.9999478131330619  0.0356168642423782  0.2542622330758419
  0.4999377003669778  0.3273510516195373  0.2636485233047594
  0.9999403221952221  0.5750784162995188  0.2761148586082740
  0.4999526822426574  0.8594660664510272  0.2853202697570154
  0.9999553040709017  0.1281640684058445  0.2993998031910081
  0.4999551792219350  0.4042107370173937  0.3110721931176457
  0.9999553040709017  0.6756578344963557  0.3230667125992284
  0.4999576762012126  0.9482079772747127  0.3347347865391441
  0.9999478131330619  0.2215885981742289  0.3468109174061382
  0.4999626701597748  0.4942217887646976  0.3587520755972520
  0.9999575513522529  0.7676066685263692  0.3704144602819355
  0.4999501852633799  0.0397948080211421  0.3824213391800555
  0.9999528070916242  0.3139526712648149  0.3940941214691307
  0.4999601731804972  0.5870692427104274  0.4064176368481682
  0.9999578010501793  0.8621555379049397  0.4179164063995913
  0.4999526822426574  0.1335195875717901  0.4311719787308164
  0.9999602980294569  0.4137697531350568  0.4406165347805739
  0.4999626701597748  0.6601470585103755  0.4560110708983203
  0.9999627950087415  0.9684546079823875  0.4632440761120336
  0.5000001248489667  0.1703395803743106  0.4880298069890756
  0.9999975030207224  0.5210398437849335  0.4879152371595481
  0.0000249697927899  0.9725580216733505  0.5126444678466839
  0.5000201006832015  0.6651490921170620  0.5198211690517098
  0.0000149818756725  0.4195468996548186  0.5353253704686054
  0.5000151067246392  0.1400931413154325  0.5447964109823786
  0.0000099879171174  0.8696149349778253  0.5579899900496912
  0.5000076157867994  0.5959638763311617  0.5694301014178436
  0.0000024969792776  0.3235968646256779  0.5817153614599633
  0.5000001248489667  0.0503227152801600  0.5933689179899773
  0.0000000000000000  0.7786562863999649  0.6055127313761233
  0.5000026218282443  0.5055631386962318  0.6171802167723968
  0.9999950060414449  0.2329193009503641  0.6291103888154765
  0.4999951308904045  0.9601668622194239  0.6408588970535121
  0.9999975030207224  0.6879084514990126  0.6526725374549187
  0.4999901369318493  0.4155222749138119  0.6647767222356507
  0.9999952557393712  0.1423396911047305  0.6763806449182752
  0.4999951308904045  0.8709543471270749  0.6884326454958369
  0.9999925090621602  0.5948736076182541  0.7000763929651015
  0.4999951308904045  0.3261244993175154  0.7141639698288955
  0.9999950060414449  0.0421478293644313  0.7233915494549308
  0.4999926339111269  0.7942224275940220  0.7357413531167722
  0.9999975030207224  0.5033251066312587  0.7451762962869992

  0.00000000E+00  0.00000000E+00  0.00000000E+00
  0.00000000E+00  0.00000000E+00  0.00000000E+00
  0.00000000E+00  0.00000000E+00  0.00000000E+00
  0.00000000E+00  0.00000000E+00  0.00000000E+00
  0.00000000E+00  0.00000000E+00  0.00000000E+00
  0.00000000E+00  0.00000000E+00  0.00000000E+00
  0.00000000E+00  0.00000000E+00  0.00000000E+00
  0.00000000E+00  0.00000000E+00  0.00000000E+00
  0.00000000E+00  0.00000000E+00  0.00000000E+00
  0.00000000E+00  0.00000000E+00  0.00000000E+00
  0.00000000E+00  0.00000000E+00  0.00000000E+00
  0.00000000E+00  0.00000000E+00  0.00000000E+00
  0.00000000E+00  0.00000000E+00  0.00000000E+00
  0.00000000E+00  0.00000000E+00  0.00000000E+00
  0.00000000E+00  0.00000000E+00  0.00000000E+00
  0.00000000E+00  0.00000000E+00  0.00000000E+00
  0.00000000E+00  0.00000000E+00  0.00000000E+00
  0.00000000E+00  0.00000000E+00  0.00000000E+00
  0.00000000E+00  0.00000000E+00  0.00000000E+00
  0.00000000E+00  0.00000000E+00  0.00000000E+00
  0.00000000E+00  0.00000000E+00  0.00000000E+00
  0.00000000E+00  0.00000000E+00  0.00000000E+00
  0.00000000E+00  0.00000000E+00  0.00000000E+00
  0.00000000E+00  0.00000000E+00  0.00000000E+00
  0.00000000E+00  0.00000000E+00  0.00000000E+00
  0.00000000E+00  0.00000000E+00  0.00000000E+00
  0.00000000E+00  0.00000000E+00  0.00000000E+00
  0.00000000E+00  0.00000000E+00  0.00000000E+00
  0.00000000E+00  0.00000000E+00  0.00000000E+00
  0.00000000E+00  0.00000000E+00  0.00000000E+00
  0.00000000E+00  0.00000000E+00  0.00000000E+00
  0.00000000E+00  0.00000000E+00  0.00000000E+00
  0.00000000E+00  0.00000000E+00  0.00000000E+00
  0.00000000E+00  0.00000000E+00  0.00000000E+00
  0.00000000E+00  0.00000000E+00  0.00000000E+00
  0.00000000E+00  0.00000000E+00  0.00000000E+00
  0.00000000E+00  0.00000000E+00  0.00000000E+00
  0.00000000E+00  0.00000000E+00  0.00000000E+00
  0.00000000E+00  0.00000000E+00  0.00000000E+00
  0.00000000E+00  0.00000000E+00  0.00000000E+00
  0.00000000E+00  0.00000000E+00  0.00000000E+00
  0.00000000E+00  0.00000000E+00  0.00000000E+00
