ALGO = Fast
AMIX = 0.01
AMIX_MAG = 0.1
BMIX = 0.0001
BMIX_MAG = 0.0001
EDIFF = 1e-05
EDIFFG = -0.01
ENCUT = 400
GGA = Pe
IBRION = 2
ISIF = 2
ISMEAR = 1
ISPIN = 2
ISTART = 0
KPAR = 2
LORBIT = 10
LPLANE = False
LREAL = Auto
MAGMOM = 1*2.863 1*2.641 1*2.372 1*2.496 1*2.267 1*2.314 1*2.231 1*2.274 1*2.197 1*2.193 1*2.223 1*2.249 1*2.201 1*2.252 1*2.2 1*2.507 1*1.997 1*2.633 1*2.532 1*0.002 1*2.624 1*2.542 1*2.641 1*1.988 1*2.504 1*2.213 1*2.273 1*2.193 1*2.212 1*2.198 1*2.203 1*2.202 1*2.204 1*2.173 1*2.265 1*2.235 1*2.309 1*2.259 1*2.495 1*2.373 1*2.635 1*2.855
NCORE = 4
NELM = 120
NSIM = 1
NSW = 60
PREC = Accurate
SIGMA = 0.2
SYSTEM = S11-ra110-s3-32-he-19
